200
120
99
99
99
99
99
98
98
97
96
95
95
93
92
91
91
90
90
90
89
89
89
86
84
84
84
83
82
82
80
80
79
79
78
78
77
77
77
76
76
76
76
74
74
74
72
72
71
71
71
71
70
70
70
69
69
69
68
67
66
66
65
65
64
64
64
64
63
63
62
62
62
61
61
60
60
60
59
59
58
58
58
57
56
56
55
54
53
53
52
52
52
52
52
51
51
51
50
50
50
49
49
47
47
46
46
45
44
44
44
44
43
43
42
42
42
42
41
41
41
41
40
40
40
40
40
39
39
39
39
37
36
35
35
34
34
33
33
33
32
32
32
32
31
30
30
29
29
28
27
27
26
26
26
26
25
25
25
24
24
24
23
23
23
22
21
21
21
19
18
18
18
17
17
16
16
15
14
14
14
13
12
11
11
10
9
7
7
7
7
7
7
6
5
4
4
3
2
2
1
1
